16
0 3 459
0 13 921
1 2 736
1 3 437
1 7 847
1 10 939
1 12 695
1 14 849
2 0 656
2 1 252
3 0 768
3 4 117
3 5 45
3 8 8
3 11 541
3 12 161
3 15 311
4 3 792
4 12 436
5 3 641
5 7 196
5 11 119
5 14 246
5 15 887
6 2 853
6 14 114
7 5 517
7 11 387
7 12 815
8 11 285
9 3 772
9 4 291
9 8 312
9 15 895
10 1 620
10 11 293
11 1 537
11 8 633
11 10 612
11 14 847
11 15 236
12 4 19
13 4 449
13 12 196
14 8 209
14 12 892
